
Gurobi 6.5.2 (win64) logging started 07/22/16 21:30:23


Gurobi 6.5.2 (win64) logging started 07/22/16 21:30:23

Optimize a model with 2377 rows, 730 columns and 6302 nonzeros
Coefficient statistics:
  Matrix range    [6e-08, 1e+03]
  Objective range [1e+00, 1e+00]
  Bounds range    [1e+00, 1e+00]
  RHS range       [6e-06, 2e+03]
Presolve removed 2134 rows and 483 columns
Presolve time: 0.00s
Presolved: 243 rows, 247 columns, 1054 nonzeros
Variable types: 247 continuous, 0 integer (0 binary)

Root relaxation: objective 1.846892e+02, 244 iterations, 0.02 seconds

    Nodes    |    Current Node    |     Objective Bounds      |     Work
 Expl Unexpl |  Obj  Depth IntInf | Incumbent    BestBd   Gap | It/Node Time

*    0     0               0     184.6892294  184.68923  0.00%     -    0s

Explored 0 nodes (244 simplex iterations) in 0.02 seconds
Thread count was 8 (of 8 available processors)

Optimal solution found (tolerance 1.00e-04)
Best objective 1.846892293816e+02, best bound 1.846892293816e+02, gap 0.0%

Wrote requested result file 'H1\instance15\\Results15EC_Sol5.lp'

